Route #1: 55 1 24 52 54
Route #2: 17 46 50 3 40 32
Route #3: 43 45 27 28 18 9 31 10
Route #4: 49 16 2 19 44 42 33
Route #5: 30 38 35 48 12
Route #6: 5 8 15 25 51 41 21
Route #7: 34 13 39 26 23 7
Route #8: 37 20 11 14 4
Route #9: 53 29 47 36 22 56 6
cost 1747.2122802734375